\ENCODING=ISO-8859-1
\Problem name: IP_model_allocation

Minimize
 obj: beta_1_1_1 + beta_1_2_1 + beta_2_1_1 + beta_2_2_1
Subject To
 c1_1_1_1_1: x_1_1_1_1 - 10000 y_1_1_1_1 <= 0
 c1_1_1_2_1: x_1_1_2_1 - 10000 y_1_1_2_1 <= 0
 c1_1_2_1_1: x_1_2_1_1 - 10000 y_1_2_1_1 <= 0
 c1_1_2_2_1: x_1_2_2_1 - 10000 y_1_2_2_1 <= 0
 c1_1_3_1_1: x_1_3_1_1 - 10000 y_1_3_1_1 <= 0
 c1_1_3_2_1: x_1_3_2_1 - 10000 y_1_3_2_1 <= 0
 c1_1_4_1_1: x_1_4_1_1 - 10000 y_1_4_1_1 <= 0
 c1_1_4_2_1: x_1_4_2_1 - 10000 y_1_4_2_1 <= 0
 c1_2_1_1_1: x_2_1_1_1 - 10000 y_2_1_1_1 <= 0
 c1_2_1_2_1: x_2_1_2_1 - 10000 y_2_1_2_1 <= 0
 c1_2_2_1_1: x_2_2_1_1 - 10000 y_2_2_1_1 <= 0
 c1_2_2_2_1: x_2_2_2_1 - 10000 y_2_2_2_1 <= 0
 c1_2_3_1_1: x_2_3_1_1 - 10000 y_2_3_1_1 <= 0
 c1_2_3_2_1: x_2_3_2_1 - 10000 y_2_3_2_1 <= 0
 c1_2_4_1_1: x_2_4_1_1 - 10000 y_2_4_1_1 <= 0
 c1_2_4_2_1: x_2_4_2_1 - 10000 y_2_4_2_1 <= 0
 c2_1_1:     x_1_1_1_1 + x_1_1_2_1  = 0.3
 c2_1_2:     x_1_2_1_1 + x_1_2_2_1  = 0.5
 c2_1_3:     x_1_3_1_1 + x_1_3_2_1  = 0.8
 c2_1_4:     x_1_4_1_1 + x_1_4_2_1  = 0.4
 c2_2_1:     x_2_1_1_1 + x_2_1_2_1  = 2.5
 c2_2_2:     x_2_2_1_1 + x_2_2_2_1  = 1.8
 c2_2_3:     x_2_3_1_1 + x_2_3_2_1  = 2.1
 c2_2_4:     x_2_4_1_1 + x_2_4_2_1  = 1.9
 c3_1_1:     y_1_1_1_1 + y_1_1_2_1 <= 1
 c3_1_2:     y_1_2_1_1 + y_1_2_2_1 <= 1
 c3_1_3:     y_1_3_1_1 + y_1_3_2_1 <= 1
 c3_1_4:     y_1_4_1_1 + y_1_4_2_1 <= 1
 c3_2_1:     y_2_1_1_1 + y_2_1_2_1 <= 1
 c3_2_2:     y_2_2_1_1 + y_2_2_2_1 <= 1
 c3_2_3:     y_2_3_1_1 + y_2_3_2_1 <= 1
 c3_2_4:     y_2_4_1_1 + y_2_4_2_1 <= 1
 c4_1_1_1_1: y_1_1_1_1 - z_1_1_1_1 <= 1
 c4_1_1_2_1: y_1_1_2_1 - z_1_1_2_1 <= 0
 c4_1_2_1_1: y_1_2_1_1 - z_1_2_1_1 <= 1
 c4_1_2_2_1: y_1_2_2_1 - z_1_2_2_1 <= 0
 c4_1_3_1_1: y_1_3_1_1 - z_1_3_1_1 <= 0
 c4_1_3_2_1: y_1_3_2_1 - z_1_3_2_1 <= 1
 c4_1_4_1_1: y_1_4_1_1 - z_1_4_1_1 <= 0
 c4_1_4_2_1: y_1_4_2_1 - z_1_4_2_1 <= 1
 c4_2_1_1_1: y_2_1_1_1 - z_2_1_1_1 <= 1
 c4_2_1_2_1: y_2_1_2_1 - z_2_1_2_1 <= 0
 c4_2_2_1_1: y_2_2_1_1 - z_2_2_1_1 <= 1
 c4_2_2_2_1: y_2_2_2_1 - z_2_2_2_1 <= 0
 c4_2_3_1_1: y_2_3_1_1 - z_2_3_1_1 <= 0
 c4_2_3_2_1: y_2_3_2_1 - z_2_3_2_1 <= 1
 c4_2_4_1_1: y_2_4_1_1 - z_2_4_1_1 <= 0
 c4_2_4_2_1: y_2_4_2_1 - z_2_4_2_1 <= 1
 c5_1_1_1_1: y_1_1_1_1 + z_1_1_1_1 >= 1
 c5_1_1_2_1: y_1_1_2_1 + z_1_1_2_1 >= 0
 c5_1_2_1_1: y_1_2_1_1 + z_1_2_1_1 >= 1
 c5_1_2_2_1: y_1_2_2_1 + z_1_2_2_1 >= 0
 c5_1_3_1_1: y_1_3_1_1 + z_1_3_1_1 >= 0
 c5_1_3_2_1: y_1_3_2_1 + z_1_3_2_1 >= 1
 c5_1_4_1_1: y_1_4_1_1 + z_1_4_1_1 >= 0
 c5_1_4_2_1: y_1_4_2_1 + z_1_4_2_1 >= 1
 c5_2_1_1_1: y_2_1_1_1 + z_2_1_1_1 >= 1
 c5_2_1_2_1: y_2_1_2_1 + z_2_1_2_1 >= 0
 c5_2_2_1_1: y_2_2_1_1 + z_2_2_1_1 >= 1
 c5_2_2_2_1: y_2_2_2_1 + z_2_2_2_1 >= 0
 c5_2_3_1_1: y_2_3_1_1 + z_2_3_1_1 >= 0
 c5_2_3_2_1: y_2_3_2_1 + z_2_3_2_1 >= 1
 c5_2_4_1_1: y_2_4_1_1 + z_2_4_1_1 >= 0
 c5_2_4_2_1: y_2_4_2_1 + z_2_4_2_1 >= 1
 c6:         z_1_1_1_1 + z_1_1_2_1 + z_1_2_1_1 + z_1_2_2_1 + z_1_3_1_1
             + z_1_3_2_1 + z_1_4_1_1 + z_1_4_2_1 + z_2_1_1_1 + z_2_1_2_1
             + z_2_2_1_1 + z_2_2_2_1 + z_2_3_1_1 + z_2_3_2_1 + z_2_4_1_1
             + z_2_4_2_1 <= 8
 c7_1_1_1:   x_1_1_1_1 + x_1_2_1_1 + x_1_3_1_1 + x_1_4_1_1 - beta_1_1_1 <= 1
 c7_1_2_1:   x_1_1_2_1 + x_1_2_2_1 + x_1_3_2_1 + x_1_4_2_1 - beta_1_2_1 <= 1
 c7_2_1_1:   x_2_1_1_1 + x_2_2_1_1 + x_2_3_1_1 + x_2_4_1_1 - beta_2_1_1 <= 4.15
 c7_2_2_1:   x_2_1_2_1 + x_2_2_2_1 + x_2_3_2_1 + x_2_4_2_1 - beta_2_2_1 <= 4.15
 c8_1_1_1:   x_1_1_1_1 + x_1_2_1_1 + x_1_3_1_1 + x_1_4_1_1 + beta_1_1_1 >= 1
 c8_1_2_1:   x_1_1_2_1 + x_1_2_2_1 + x_1_3_2_1 + x_1_4_2_1 + beta_1_2_1 >= 1
 c8_2_1_1:   x_2_1_1_1 + x_2_2_1_1 + x_2_3_1_1 + x_2_4_1_1 + beta_2_1_1 >= 4.15
 c8_2_2_1:   x_2_1_2_1 + x_2_2_2_1 + x_2_3_2_1 + x_2_4_2_1 + beta_2_2_1 >= 4.15
Bounds
 0 <= y_1_1_1_1 <= 1
 0 <= y_1_1_2_1 <= 1
 0 <= y_1_2_1_1 <= 1
 0 <= y_1_2_2_1 <= 1
 0 <= y_1_3_1_1 <= 1
 0 <= y_1_3_2_1 <= 1
 0 <= y_1_4_1_1 <= 1
 0 <= y_1_4_2_1 <= 1
 0 <= y_2_1_1_1 <= 1
 0 <= y_2_1_2_1 <= 1
 0 <= y_2_2_1_1 <= 1
 0 <= y_2_2_2_1 <= 1
 0 <= y_2_3_1_1 <= 1
 0 <= y_2_3_2_1 <= 1
 0 <= y_2_4_1_1 <= 1
 0 <= y_2_4_2_1 <= 1
 0 <= z_1_1_1_1 <= 1
 0 <= z_1_1_2_1 <= 1
 0 <= z_1_2_1_1 <= 1
 0 <= z_1_2_2_1 <= 1
 0 <= z_1_3_1_1 <= 1
 0 <= z_1_3_2_1 <= 1
 0 <= z_1_4_1_1 <= 1
 0 <= z_1_4_2_1 <= 1
 0 <= z_2_1_1_1 <= 1
 0 <= z_2_1_2_1 <= 1
 0 <= z_2_2_1_1 <= 1
 0 <= z_2_2_2_1 <= 1
 0 <= z_2_3_1_1 <= 1
 0 <= z_2_3_2_1 <= 1
 0 <= z_2_4_1_1 <= 1
 0 <= z_2_4_2_1 <= 1
Binaries
 y_1_1_1_1  y_1_1_2_1  y_1_2_1_1  y_1_2_2_1  y_1_3_1_1  y_1_3_2_1  y_1_4_1_1 
 y_1_4_2_1  y_2_1_1_1  y_2_1_2_1  y_2_2_1_1  y_2_2_2_1  y_2_3_1_1  y_2_3_2_1 
 y_2_4_1_1  y_2_4_2_1  z_1_1_1_1  z_1_1_2_1  z_1_2_1_1  z_1_2_2_1  z_1_3_1_1 
 z_1_3_2_1  z_1_4_1_1  z_1_4_2_1  z_2_1_1_1  z_2_1_2_1  z_2_2_1_1  z_2_2_2_1 
 z_2_3_1_1  z_2_3_2_1  z_2_4_1_1  z_2_4_2_1 
End
